c 
c G(k,n,p) graph
c graph gen seed     : 3944
c number of vertices : 50
c max number of edges: 625
c number of classes  : 2
c edge density       : 0.200000
c edge probability   : 0.400000
c data structure     : sparse
c
c           Graph Stats
c number of vertices  : 50
c nonisolated vertices: 50
c number of edges     : 255
c edge density        : 0.208163
c max degree          : 17
c avg degree          : 10.20
c min degree          : 6
p col 50 255
e 1 43
e 1 40
e 1 39
e 1 25
e 1 23
e 1 18
e 1 13
e 2 49
e 2 40
e 2 28
e 2 23
e 2 16
e 2 15
e 2 12
e 2 9
e 2 7
e 3 50
e 3 49
e 3 43
e 3 39
e 3 28
e 3 21
e 3 19
e 3 18
e 3 17
e 3 11
e 4 50
e 4 43
e 4 41
e 4 40
e 4 38
e 4 33
e 4 19
e 4 18
e 4 15
e 4 13
e 4 12
e 4 7
e 5 40
e 5 36
e 5 25
e 5 23
e 5 19
e 5 16
e 5 13
e 5 9
e 6 50
e 6 49
e 6 43
e 6 41
e 6 26
e 6 25
e 6 17
e 6 16
e 6 12
e 6 9
e 7 48
e 7 47
e 7 45
e 7 44
e 7 35
e 7 20
e 7 8
e 8 43
e 8 40
e 8 38
e 8 36
e 8 21
e 8 17
e 8 16
e 8 13
e 8 9
e 9 47
e 9 46
e 9 42
e 9 37
e 9 35
e 9 34
e 9 32
e 9 31
e 9 30
e 9 29
e 9 27
e 9 22
e 9 14
e 10 41
e 10 40
e 10 33
e 10 28
e 10 16
e 10 15
e 10 11
e 11 48
e 11 45
e 11 44
e 11 27
e 11 20
e 12 47
e 12 32
e 12 31
e 12 27
e 12 24
e 12 14
e 13 47
e 13 45
e 13 44
e 13 37
e 13 31
e 13 29
e 14 50
e 14 49
e 14 41
e 14 39
e 14 33
e 14 28
e 14 26
e 14 21
e 14 17
e 14 15
e 15 47
e 15 44
e 15 42
e 15 37
e 15 34
e 15 24
e 15 22
e 15 20
e 16 44
e 16 42
e 16 32
e 16 24
e 16 22
e 16 20
e 17 48
e 17 46
e 17 45
e 17 42
e 17 32
e 17 31
e 17 24
e 18 48
e 18 44
e 18 42
e 18 30
e 18 29
e 18 24
e 18 22
e 18 20
e 19 46
e 19 44
e 19 37
e 19 35
e 19 34
e 19 30
e 19 29
e 19 24
e 19 22
e 20 50
e 20 43
e 20 40
e 20 39
e 20 36
e 20 23
e 21 46
e 21 45
e 21 44
e 21 42
e 21 32
e 21 30
e 21 24
e 22 49
e 22 39
e 22 36
e 22 33
e 22 28
e 22 26
e 22 25
e 23 48
e 23 42
e 23 34
e 23 32
e 23 31
e 23 30
e 24 50
e 24 49
e 24 43
e 24 40
e 24 36
e 24 28
e 25 48
e 25 46
e 25 45
e 25 44
e 25 37
e 25 35
e 25 32
e 25 29
e 26 48
e 26 45
e 26 31
e 27 50
e 27 49
e 27 43
e 27 40
e 27 33
e 27 28
e 28 42
e 28 34
e 28 32
e 28 30
e 29 43
e 29 40
e 29 38
e 29 33
e 30 50
e 30 49
e 30 43
e 30 39
e 31 50
e 31 49
e 31 38
e 31 36
e 32 43
e 32 40
e 32 38
e 33 48
e 33 47
e 33 35
e 33 34
e 34 50
e 34 49
e 34 41
e 34 38
e 34 36
e 35 50
e 35 49
e 35 41
e 35 38
e 36 46
e 36 42
e 37 43
e 37 41
e 37 39
e 38 44
e 38 42
e 39 46
e 39 45
e 40 48
e 40 44
e 40 42
e 41 45
e 41 42
e 42 50
e 44 49
e 48 49
